(set-logic ALL)
(declare-const k Int)
(declare-fun s () (_ BitVec k))
(declare-fun t () (_ BitVec k))
(assert (distinct (bvule s (bvshl (bvand t (_ bv1 k)) t)) (bvule s (bvadd t (bvshl t t)))))
(check-sat)
